NAME : arr.tsp
TIME : 2020-10-28 21:48:40
COMMENT : hello world
DIMENSION : 26
NODE_COORD_SECTION
0 68.6161 36.8952
1 86.4414 59.4758
2 75.1238 30.6452
3 71.1626 17.9435
4 56.4497 16.1290
5 38.0585 12.5000
6 23.0626 13.5081
7 12.8767 19.5565
8 8.0667 35.4839
9 8.0667 53.6290
10 25.0431 43.3468
11 31.8337 34.0726
12 43.7173 31.0484
13 55.0349 36.4919
14 49.0932 52.0161
15 36.0779 56.4516
16 23.3455 62.7016
17 20.7990 77.8226
18 35.2290 82.0565
19 45.9808 77.0161
20 55.8838 72.3790
21 72.2944 79.6371
22 84.4609 84.4758
23 88.9879 72.1774
24 81.3485 56.4516
25 78.5191 46.5726
EOF
